WARNING: for repeatability, setting FPU to use double precision
============================[ Problem Statistics ]=============================
|                                                                             |
|  Number of variables:            50                                         |
|  Number of clauses:             218                                         |
|  Parse time:                   0.00 s                                       |
|                                                                             |
============================[ Search Statistics ]==============================
| Conflicts |          ORIGINAL         |          LEARNT          | Progress |
|           |    Vars  Clauses Literals |    Limit  Clauses Lit/Cl |          |
===============================================================================
===============================================================================
restarts              : 1
conflicts             : 67             (45578 /sec)
decisions             : 76             (0.00 % random) (51701 /sec)
propagations          : 833            (566667 /sec)
conflict literals     : 251            (12.85 % deleted)
Memory used           : 20.00 MB
CPU time              : 0.00147 s

UNSATISFIABLE
